NAME : A-n32-k5
COMMENT : (Augerat et al, Min no of trucks: 5, Optimal value: 784)
TYPE : CVRP
DIMENSION : 32
EDGE_WEIGHT_TYPE : EUC_2D 
CAPACITY : 100
NODE_COORD_SECTION 
n0 1 1
n1 82 76
n2 96 44
n3 50 5
n4 49 8
n5 13 7
n6 29 89
n7 58 30
n8 84 39
n9 14 24
n10 2 39
n11 3 82
n12 5 10
n13 98 52
n14 84 25
n15 61 59
n16 1 65
n17 88 51
n18 91 2
n19 19 32
n20 93 3
n21 50 93
n22 98 14
n23 5 42
n24 42 9
n25 61 62
n26 9 97
n27 80 55
n28 57 69
n29 23 15
n30 20 70
n31 85 60
n32 98 5
DEMAND_SECTION
n0 0
n1 19
n2 19 
n3 21 
n4 6 
n5 19 
n6 7 
n7 12 
n8 16 
n9 6 
n10 16 
n11 8 
n12 14 
n13 21 
n14 16 
n15 3 
n16 22 
n17 18 
n18 19 
n19 1 
n20 24 
n21 8 
n22 12 
n23 4 
n24 8 
n25 24 
n26 24 
n27 2 
n28 20 
n29 15 
n30 2 
n31 14 
n32 9 
DEPOT_SECTION 
TIME_SECTION
n0 n1 20
n0 n2 20
n0 n3 20
n0 n4 20
n0 n5 20
n0 n6 20
n0 n7 20
n0 n8 20
n0 n9 20
n0 n10 20
n0 n11 20
n0 n12 20
n0 n13 20
n0 n14 20
n0 n15 20
n0 n16 20
n0 n17 20
n0 n18 20
n0 n19 20
n0 n20 20
n0 n21 20
n0 n22 20
n0 n23 20
n0 n24 20
n0 n25 20
n0 n26 20
n0 n27 20 
n0 n28 20
n0 n29 20
n0 n30 20
n0 n31 20
n0 n32 20
n1 n2 20
n1 n3 20
n1 n4 20
n1 n5 20
n1 n6 20
n1 n7 20
n1 n8 20
n1 n9 20
n1 n10 20
n1 n11 20
n1 n12 20
n1 n13 20
n1 n14 20
n1 n15 20
n1 n16 20
n1 n17 20
n1 n18 20
n1 n19 20
n1 n20 20
n1 n21 20
n1 n22 20
n1 n23 20
n1 n24 20
n1 n25 20
n1 n26 20
n1 n27 20
n1 n28 20
n1 n29 20
n1 n30 20
n1 n31 20
n1 n32 20
n2 n3 20
n2 n4 20
n2 n5 20
n2 n6 20
n2 n7 20
n2 n8 20
n2 n9 20
n2 n10 20
n2 n11 20
n2 n12 20
n2 n13 20
n2 n14 20
n2 n15 20
n2 n16 20
n2 n17 20
n2 n18 20
n2 n19 20
n2 n20 20
n2 n21 20
n2 n22 20
n2 n23 20
n2 n24 20
n2 n25 20
n2 n26 20
n2 n27 20
n2 n28 20
n2 n29 20
n2 n30 20
n2 n31 20
n2 n32 20
n3 n4 20
n3 n5 20
n3 n6 20
n3 n7 20
n3 n8 20
n3 n9 20
n3 n10 20
n3 n11 20
n3 n12 20
n3 n13 20
n3 n14 20
n3 n15 20
n3 n16 20
n3 n17 20
n3 n18 20
n3 n19 20
n3 n20 20
n3 n21 20
n3 n22 20
n3 n23 20
n3 n24 20
n3 n25 20
n3 n26 20
n3 n27 20
n3 n28 20
n3 n29 20
n3 n30 20
n3 n31 20
n3 n32 20
n4 n5 20
n4 n6 20
n4 n7 20
n4 n8 20
n4 n9 20
n4 n10 20
n4 n11 20
n4 n12 20
n4 n13 20
n4 n14 20
n4 n15 20
n4 n16 20
n4 n17 20
n4 n18 20
n4 n19 20
n4 n20 20
n4 n21 20
n4 n22 20
n4 n23 20
n4 n24 20
n4 n25 20
n4 n26 20
n4 n27 20
n4 n28 20
n4 n29 20
n4 n30 20
n4 n31 20
n4 n32 20
n5 n6 20
n5 n7 20
n5 n8 20
n5 n9 20
n5 n10 20
n5 n11 20
n5 n12 20
n5 n13 20
n5 n14 20
n5 n15 20
n5 n16 20
n5 n17 20
n5 n18 20
n5 n19 20
n5 n20 20
n5 n21 20
n5 n22 20
n5 n23 20
n5 n24 20
n5 n25 20
n5 n26 20
n5 n27 20
n5 n28 20
n5 n29 20
n5 n30 20
n5 n31 20
n5 n32 20
n6 n7 20
n6 n8 20
n6 n9 20
n6 n10 20
n6 n11 20
n6 n12 20
n6 n13 20
n6 n14 20
n6 n15 20
n6 n16 20
n6 n17 20
n6 n18 20
n6 n19 20
n6 n20 20
n6 n21 20
n6 n22 20
n6 n23 20
n6 n24 20
n6 n25 20
n6 n26 20
n6 n27 20
n6 n28 20
n6 n29 20
n6 n30 20
n6 n31 20
n6 n32 20
n7 n8 20
n7 n9 20
n7 n10 20
n7 n11 20
n7 n12 20
n7 n13 20
n7 n14 20
n7 n15 20
n7 n16 20
n7 n17 20
n7 n18 20
n7 n19 20
n7 n20 20
n7 n21 20
n7 n22 20
n7 n23 20
n7 n24 20
n7 n25 20
n7 n26 20
n7 n27 20
n7 n28 20
n7 n29 20
n7 n30 20
n7 n31 20
n7 n32 20
n8 n9 20
n8 n10 20
n8 n11 20
n8 n12 20
n8 n13 20
n8 n14 20
n8 n15 20
n8 n16 20
n8 n17 20
n8 n18 20
n8 n19 20
n8 n20 20
n8 n21 20
n8 n22 20
n8 n23 20
n8 n24 20
n8 n25 20
n8 n26 20
n8 n27 20
n8 n28 20
n8 n29 20
n8 n30 20
n8 n31 20
n8 n32 20
n9 n10 20
n9 n11 20
n9 n12 20
n9 n13 20
n9 n14 20
n9 n15 20
n9 n16 20
n9 n17 20
n9 n18 20
n9 n19 20
n9 n20 20
n9 n21 20
n9 n22 20
n9 n23 20
n9 n24 20
n9 n25 20
n9 n26 20
n9 n27 20
n9 n28 20
n9 n29 20
n9 n30 20
n8 n31 20
n9 n32 20
n10 n11 20
n10 n12 20
n10 n13 20
n10 n14 20
n10 n15 20
n10 n16 20
n10 n17 20
n10 n18 20
n10 n19 20
n10 n20 20
n10 n21 20
n10 n22 20
n10 n23 20
n10 n24 20
n10 n25 20
n10 n26 20
n10 n27 20
n10 n28 20
n10 n29 20
n10 n30 20
n10 n31 20
n10 n32 20
n11 n12 20
n11 n13 20
n11 n14 20
n11 n15 20
n11 n16 20
n11 n17 20
n11 n18 20
n11 n19 20
n11 n20 20
n11 n21 20
n11 n22 20
n11 n23 20
n11 n24 20
n11 n25 20
n11 n26 20
n11 n27 20
n11 n28 20
n11 n29 20
n11 n30 20
n11 n31 20
n11 n32 20
n12 n13 20
n12 n14 20
n12 n15 20
n12 n16 20
n12 n17 20
n12 n18 20
n12 n19 20
n12 n20 20
n12 n21 20
n12 n22 20
n12 n23 20
n12 n24 20
n12 n25 20
n12 n26 20
n12 n27 20
n12 n28 20
n12 n29 20
n12 n30 20
n12 n31 20
n12 n32 20
n13 n14 20
n13 n15 20
n13 n16 20
n13 n17 20
n13 n18 20
n13 n19 20
n13 n20 20
n13 n21 20
n13 n22 20
n13 n23 20
n13 n24 20
n13 n25 20
n13 n26 20
n13 n27 20
n13 n28 20
n13 n29 20
n13 n30 20
n13 n31 20
n13 n32 20
n14 n15 20
n14 n16 20
n14 n17 20
n14 n18 20
n14 n19 20
n14 n20 20
n14 n21 20
n14 n22 20
n14 n23 20
n14 n24 20
n14 n25 20
n14 n26 20
n14 n27 20
n14 n28 20
n14 n29 20
n14 n30 20
n14 n31 20
n14 n32 20
n15 n16 20
n15 n17 20
n15 n18 20
n15 n19 20
n15 n20 20
n15 n21 20
n15 n22 20
n15 n23 20
n15 n24 20
n15 n25 20
n15 n26 20
n15 n27 20
n15 n28 20
n15 n29 20
n15 n30 20
n15 n31 20
n15 n32 20
n16 n17 20
n16 n18 20
n16 n19 20
n16 n20 20
n16 n21 20
n16 n22 20
n16 n23 20
n16 n24 20
n16 n25 20
n16 n26 20
n16 n27 20
n16 n28 20
n16 n29 20
n16 n30 20
n16 n31 20
n16 n32 20
n17 n18 20
n17 n19 20
n17 n20 20
n17 n21 20
n17 n22 20
n17 n23 20
n17 n24 20
n17 n25 20
n17 n26 20
n17 n27 20
n17 n28 20
n17 n29 20
n17 n30 20
n17 n31 20
n17 n32 20
n18 n19 20
n18 n20 20
n18 n21 20
n18 n22 20
n18 n23 20
n18 n24 20
n18 n25 20
n18 n26 20
n18 n27 20
n18 n28 20
n18 n29 20
n18 n30 20
n18 n31 20
n18 n32 20
n19 n20 20
n19 n21 20
n19 n22 30
n19 n23 20
n19 n24 20
n19 n25 20
n19 n26 20
n19 n27 20
n19 n28 20
n19 n29 20
n19 n30 20
n19 n31 20
n19 n32 20
n20 n21 20
n20 n22 20
n20 n23 20
n20 n24 20
n20 n25 20
n20 n26 20
n20 n27 20
n20 n28 20
n20 n29 20
n20 n30 20
n20 n31 20
n20 n32 20
n21 n22 10
n21 n23 20
n21 n24 20
n21 n25 20
n21 n26 20
n21 n27 20
n21 n28 20
n21 n29 20
n21 n30 20
n21 n31 20
n21 n32 20
n22 n23 20
n22 n24 20
n22 n25 20
n22 n26 20
n22 n27 20
n22 n28 20
n22 n29 20
n22 n30 20
n22 n31 20
n22 n32 20
n23 n24 20
n23 n25 20
n23 n26 20
n23 n27 20
n23 n28 20
n23 n29 20
n23 n30 20
n23 n31 20
n23 n32 20
n24 n25 20
n24 n26 20
n24 n27 20
n24 n28 20
n24 n29 20
n24 n30 20
n24 n31 20
n24 n32 20
n25 n26 20
n25 n27 20
n25 n28 20
n25 n29 20
n25 n30 20
n25 n31 20
n25 n32 20
n26 n27 20
n26 n28 20
n26 n29 20
n26 n30 20
n26 n31 20
n26 n32 20
n27 n28 20
n27 n29 20
n27 n30 20
n27 n31 20
n27 n32 20
n28 n29 20
n28 n30 20
n28 n31 20
n28 n32 20
n29 n30 20
n29 n31 20
n29 n32 20
n30 n31 20
n30 n32 20
n31 n32 20
